c Sudoku solution
p cnf 729 0
126 0
194 0
231 0
244 0
263 0
276 0
288 0
359 0
432 0
446 0
366 0
493 0
567 0
578 0
581 0
613 0
624 0
554 0
543 0
592 0
649 0
687 0
696 0
675 0
638 0
733 0
323 0
747 0
837 0
884 0
474 0
489 0
925 0
529 0
934 0
764 0
314 0
335 0
139 0
118 0
348 0
299 0
255 0
157 0
185 0
173 0
382 0
536 0
515 0
845 0
465 0
458 0
853 0
816 0
983 0
786 0
795 0
956 0
728 0
991 0
898 0
977 0
968 0
869 0
821 0
751 0
942 0
872 0
779 0
712 0
919 0
411 0
427 0
217 0
222 0
141 0
162 0
652 0
661 0
371 0
397 0
